NAME           C:\Bruker\Hvattum\knapsack\Problems\class4\100-10-21.mps
ROWS
 N  OBJ
 L  CONSTR1
 L  CONSTR2
 L  CONSTR3
 L  CONSTR4
 L  CONSTR5
 L  CONSTR6
 L  CONSTR7
 L  CONSTR8
 L  CONSTR9
 L  CONSTR10
COLUMNS
    INT0001   'MARKER'  'INTORG'
    X1        OBJ       942
    X1        CONSTR1   705
    X1        CONSTR2   277
    X1        CONSTR3   659
    X1        CONSTR4   943
    X1        CONSTR5   208
    X1        CONSTR6   201
    X1        CONSTR7   997
    X1        CONSTR8   85
    X1        CONSTR9   803
    X1        CONSTR10  714
    X2        OBJ       586
    X2        CONSTR1   792
    X2        CONSTR2   223
    X2        CONSTR3   70
    X2        CONSTR4   666
    X2        CONSTR5   310
    X2        CONSTR6   270
    X2        CONSTR7   477
    X2        CONSTR8   254
    X2        CONSTR9   788
    X2        CONSTR10  953
    X3        OBJ       844
    X3        CONSTR1   364
    X3        CONSTR2   619
    X3        CONSTR3   162
    X3        CONSTR4   945
    X3        CONSTR5   233
    X3        CONSTR6   771
    X3        CONSTR7   667
    X3        CONSTR8   611
    X3        CONSTR9   56
    X3        CONSTR10  870
    X4        OBJ       896
    X4        CONSTR1   839
    X4        CONSTR2   804
    X4        CONSTR3   341
    X4        CONSTR4   495
    X4        CONSTR5   288
    X4        CONSTR6   351
    X4        CONSTR7   71
    X4        CONSTR8   490
    X4        CONSTR9   518
    X4        CONSTR10  401
    X5        OBJ       496
    X5        CONSTR1   560
    X5        CONSTR2   831
    X5        CONSTR3   810
    X5        CONSTR4   89
    X5        CONSTR5   115
    X5        CONSTR6   452
    X5        CONSTR7   935
    X5        CONSTR8   238
    X5        CONSTR9   258
    X5        CONSTR10  508
    X6        OBJ       650
    X6        CONSTR1   550
    X6        CONSTR2   903
    X6        CONSTR3   680
    X6        CONSTR4   713
    X6        CONSTR5   132
    X6        CONSTR6   258
    X6        CONSTR7   445
    X6        CONSTR8   277
    X6        CONSTR9   426
    X6        CONSTR10  613
    X7        OBJ       477
    X7        CONSTR1   116
    X7        CONSTR2   805
    X7        CONSTR3   816
    X7        CONSTR4   469
    X7        CONSTR5   20
    X7        CONSTR6   349
    X7        CONSTR7   249
    X7        CONSTR8   619
    X7        CONSTR9   349
    X7        CONSTR10  627
    X8        OBJ       998
    X8        CONSTR1   923
    X8        CONSTR2   942
    X8        CONSTR3   859
    X8        CONSTR4   359
    X8        CONSTR5   734
    X8        CONSTR6   457
    X8        CONSTR7   81
    X8        CONSTR8   329
    X8        CONSTR9   790
    X8        CONSTR10  447
    X9        OBJ       634
    X9        CONSTR1   494
    X9        CONSTR2   860
    X9        CONSTR3   404
    X9        CONSTR4   587
    X9        CONSTR5   666
    X9        CONSTR6   555
    X9        CONSTR7   206
    X9        CONSTR8   155
    X9        CONSTR9   879
    X9        CONSTR10  710
    X10       OBJ       454
    X10       CONSTR1   467
    X10       CONSTR2   807
    X10       CONSTR3   251
    X10       CONSTR4   656
    X10       CONSTR5   53
    X10       CONSTR6   33
    X10       CONSTR7   546
    X10       CONSTR8   471
    X10       CONSTR9   6
    X10       CONSTR10  470
    X11       OBJ       741
    X11       CONSTR1   762
    X11       CONSTR2   997
    X11       CONSTR3   547
    X11       CONSTR4   521
    X11       CONSTR5   118
    X11       CONSTR6   601
    X11       CONSTR7   755
    X11       CONSTR8   900
    X11       CONSTR9   310
    X11       CONSTR10  338
    X12       OBJ       884
    X12       CONSTR1   827
    X12       CONSTR2   706
    X12       CONSTR3   863
    X12       CONSTR4   37
    X12       CONSTR5   475
    X12       CONSTR6   135
    X12       CONSTR7   586
    X12       CONSTR8   391
    X12       CONSTR9   364
    X12       CONSTR10  101
    X13       OBJ       807
    X13       CONSTR1   757
    X13       CONSTR2   49
    X13       CONSTR3   151
    X13       CONSTR4   152
    X13       CONSTR5   234
    X13       CONSTR6   341
    X13       CONSTR7   485
    X13       CONSTR8   93
    X13       CONSTR9   682
    X13       CONSTR10  233
    X14       OBJ       745
    X14       CONSTR1   526
    X14       CONSTR2   461
    X14       CONSTR3   124
    X14       CONSTR4   254
    X14       CONSTR5   514
    X14       CONSTR6   419
    X14       CONSTR7   535
    X14       CONSTR8   849
    X14       CONSTR9   670
    X14       CONSTR10  416
    X15       OBJ       517
    X15       CONSTR1   344
    X15       CONSTR2   858
    X15       CONSTR3   762
    X15       CONSTR4   47
    X15       CONSTR5   132
    X15       CONSTR6   881
    X15       CONSTR7   75
    X15       CONSTR8   700
    X15       CONSTR9   58
    X15       CONSTR10  687
    X16       OBJ       834
    X16       CONSTR1   859
    X16       CONSTR2   81
    X16       CONSTR3   605
    X16       CONSTR4   212
    X16       CONSTR5   90
    X16       CONSTR6   992
    X16       CONSTR7   853
    X16       CONSTR8   156
    X16       CONSTR9   930
    X16       CONSTR10  613
    X17       OBJ       935
    X17       CONSTR1   599
    X17       CONSTR2   104
    X17       CONSTR3   261
    X17       CONSTR4   948
    X17       CONSTR5   881
    X17       CONSTR6   15
    X17       CONSTR7   320
    X17       CONSTR8   532
    X17       CONSTR9   354
    X17       CONSTR10  560
    X18       OBJ       532
    X18       CONSTR1   48
    X18       CONSTR2   438
    X18       CONSTR3   189
    X18       CONSTR4   631
    X18       CONSTR5   656
    X18       CONSTR6   153
    X18       CONSTR7   909
    X18       CONSTR8   510
    X18       CONSTR9   734
    X18       CONSTR10  910
    X19       OBJ       587
    X19       CONSTR1   210
    X19       CONSTR2   495
    X19       CONSTR3   478
    X19       CONSTR4   105
    X19       CONSTR5   292
    X19       CONSTR6   691
    X19       CONSTR7   317
    X19       CONSTR8   408
    X19       CONSTR9   226
    X19       CONSTR10  628
    X20       OBJ       576
    X20       CONSTR1   732
    X20       CONSTR2   909
    X20       CONSTR3   501
    X20       CONSTR4   589
    X20       CONSTR5   300
    X20       CONSTR6   183
    X20       CONSTR7   1000
    X20       CONSTR8   417
    X20       CONSTR9   127
    X20       CONSTR10  902
    X21       OBJ       447
    X21       CONSTR1   126
    X21       CONSTR2   114
    X21       CONSTR3   129
    X21       CONSTR4   139
    X21       CONSTR5   738
    X21       CONSTR6   566
    X21       CONSTR7   621
    X21       CONSTR8   187
    X21       CONSTR9   726
    X21       CONSTR10  200
    X22       OBJ       750
    X22       CONSTR1   984
    X22       CONSTR2   354
    X22       CONSTR3   986
    X22       CONSTR4   185
    X22       CONSTR5   807
    X22       CONSTR6   355
    X22       CONSTR7   840
    X22       CONSTR8   283
    X22       CONSTR9   726
    X22       CONSTR10  445
    X23       OBJ       683
    X23       CONSTR1   969
    X23       CONSTR2   941
    X23       CONSTR3   744
    X23       CONSTR4   163
    X23       CONSTR5   523
    X23       CONSTR6   562
    X23       CONSTR7   524
    X23       CONSTR8   671
    X23       CONSTR9   920
    X23       CONSTR10  815
    X24       OBJ       721
    X24       CONSTR1   782
    X24       CONSTR2   381
    X24       CONSTR3   254
    X24       CONSTR4   932
    X24       CONSTR5   749
    X24       CONSTR6   512
    X24       CONSTR7   875
    X24       CONSTR8   898
    X24       CONSTR9   320
    X24       CONSTR10  971
    X25       OBJ       883
    X25       CONSTR1   743
    X25       CONSTR2   432
    X25       CONSTR3   195
    X25       CONSTR4   334
    X25       CONSTR5   376
    X25       CONSTR6   229
    X25       CONSTR7   551
    X25       CONSTR8   714
    X25       CONSTR9   412
    X25       CONSTR10  808
    X26       OBJ       908
    X26       CONSTR1   340
    X26       CONSTR2   658
    X26       CONSTR3   565
    X26       CONSTR4   367
    X26       CONSTR5   524
    X26       CONSTR6   755
    X26       CONSTR7   449
    X26       CONSTR8   148
    X26       CONSTR9   129
    X26       CONSTR10  694
    X27       OBJ       601
    X27       CONSTR1   379
    X27       CONSTR2   841
    X27       CONSTR3   553
    X27       CONSTR4   147
    X27       CONSTR5   945
    X27       CONSTR6   110
    X27       CONSTR7   333
    X27       CONSTR8   80
    X27       CONSTR9   54
    X27       CONSTR10  571
    X28       OBJ       720
    X28       CONSTR1   404
    X28       CONSTR2   141
    X28       CONSTR3   827
    X28       CONSTR4   976
    X28       CONSTR5   122
    X28       CONSTR6   279
    X28       CONSTR7   823
    X28       CONSTR8   779
    X28       CONSTR9   264
    X28       CONSTR10  266
    X29       OBJ       719
    X29       CONSTR1   434
    X29       CONSTR2   504
    X29       CONSTR3   403
    X29       CONSTR4   133
    X29       CONSTR5   555
    X29       CONSTR6   100
    X29       CONSTR7   897
    X29       CONSTR8   817
    X29       CONSTR9   153
    X29       CONSTR10  588
    X30       OBJ       750
    X30       CONSTR1   46
    X30       CONSTR2   62
    X30       CONSTR3   418
    X30       CONSTR4   150
    X30       CONSTR5   902
    X30       CONSTR6   782
    X30       CONSTR7   930
    X30       CONSTR8   779
    X30       CONSTR9   590
    X30       CONSTR10  94
    X31       OBJ       760
    X31       CONSTR1   380
    X31       CONSTR2   163
    X31       CONSTR3   403
    X31       CONSTR4   628
    X31       CONSTR5   367
    X31       CONSTR6   636
    X31       CONSTR7   709
    X31       CONSTR8   453
    X31       CONSTR9   847
    X31       CONSTR10  687
    X32       OBJ       731
    X32       CONSTR1   131
    X32       CONSTR2   127
    X32       CONSTR3   952
    X32       CONSTR4   633
    X32       CONSTR5   893
    X32       CONSTR6   773
    X32       CONSTR7   134
    X32       CONSTR8   835
    X32       CONSTR9   47
    X32       CONSTR10  648
    X33       OBJ       524
    X33       CONSTR1   59
    X33       CONSTR2   768
    X33       CONSTR3   62
    X33       CONSTR4   24
    X33       CONSTR5   795
    X33       CONSTR6   110
    X33       CONSTR7   453
    X33       CONSTR8   980
    X33       CONSTR9   229
    X33       CONSTR10  952
    X34       OBJ       764
    X34       CONSTR1   339
    X34       CONSTR2   633
    X34       CONSTR3   906
    X34       CONSTR4   715
    X34       CONSTR5   539
    X34       CONSTR6   606
    X34       CONSTR7   739
    X34       CONSTR8   988
    X34       CONSTR9   785
    X34       CONSTR10  836
    X35       OBJ       632
    X35       CONSTR1   810
    X35       CONSTR2   91
    X35       CONSTR3   650
    X35       CONSTR4   989
    X35       CONSTR5   652
    X35       CONSTR6   437
    X35       CONSTR7   155
    X35       CONSTR8   437
    X35       CONSTR9   926
    X35       CONSTR10  689
    X36       OBJ       595
    X36       CONSTR1   952
    X36       CONSTR2   819
    X36       CONSTR3   658
    X36       CONSTR4   878
    X36       CONSTR5   828
    X36       CONSTR6   66
    X36       CONSTR7   110
    X36       CONSTR8   443
    X36       CONSTR9   404
    X36       CONSTR10  604
    X37       OBJ       557
    X37       CONSTR1   710
    X37       CONSTR2   155
    X37       CONSTR3   516
    X37       CONSTR4   900
    X37       CONSTR5   871
    X37       CONSTR6   433
    X37       CONSTR7   258
    X37       CONSTR8   291
    X37       CONSTR9   899
    X37       CONSTR10  71
    X38       OBJ       787
    X38       CONSTR1   698
    X38       CONSTR2   865
    X38       CONSTR3   409
    X38       CONSTR4   73
    X38       CONSTR5   729
    X38       CONSTR6   521
    X38       CONSTR7   655
    X38       CONSTR8   465
    X38       CONSTR9   856
    X38       CONSTR10  23
    X39       OBJ       822
    X39       CONSTR1   580
    X39       CONSTR2   164
    X39       CONSTR3   170
    X39       CONSTR4   334
    X39       CONSTR5   162
    X39       CONSTR6   416
    X39       CONSTR7   981
    X39       CONSTR8   322
    X39       CONSTR9   720
    X39       CONSTR10  984
    X40       OBJ       503
    X40       CONSTR1   84
    X40       CONSTR2   255
    X40       CONSTR3   218
    X40       CONSTR4   349
    X40       CONSTR5   382
    X40       CONSTR6   257
    X40       CONSTR7   125
    X40       CONSTR8   53
    X40       CONSTR9   890
    X40       CONSTR10  322
    X41       OBJ       958
    X41       CONSTR1   780
    X41       CONSTR2   830
    X41       CONSTR3   54
    X41       CONSTR4   925
    X41       CONSTR5   172
    X41       CONSTR6   947
    X41       CONSTR7   79
    X41       CONSTR8   87
    X41       CONSTR9   804
    X41       CONSTR10  826
    X42       OBJ       695
    X42       CONSTR1   497
    X42       CONSTR2   519
    X42       CONSTR3   974
    X42       CONSTR4   171
    X42       CONSTR5   804
    X42       CONSTR6   70
    X42       CONSTR7   245
    X42       CONSTR8   838
    X42       CONSTR9   373
    X42       CONSTR10  854
    X43       OBJ       499
    X43       CONSTR1   272
    X43       CONSTR2   133
    X43       CONSTR3   744
    X43       CONSTR4   275
    X43       CONSTR5   444
    X43       CONSTR6   383
    X43       CONSTR7   731
    X43       CONSTR8   551
    X43       CONSTR9   530
    X43       CONSTR10  395
    X44       OBJ       604
    X44       CONSTR1   688
    X44       CONSTR2   24
    X44       CONSTR3   368
    X44       CONSTR4   714
    X44       CONSTR5   419
    X44       CONSTR6   590
    X44       CONSTR7   356
    X44       CONSTR8   508
    X44       CONSTR9   211
    X44       CONSTR10  324
    X45       OBJ       898
    X45       CONSTR1   223
    X45       CONSTR2   898
    X45       CONSTR3   936
    X45       CONSTR4   159
    X45       CONSTR5   463
    X45       CONSTR6   505
    X45       CONSTR7   723
    X45       CONSTR8   84
    X45       CONSTR9   918
    X45       CONSTR10  255
    X46       OBJ       974
    X46       CONSTR1   830
    X46       CONSTR2   931
    X46       CONSTR3   821
    X46       CONSTR4   438
    X46       CONSTR5   571
    X46       CONSTR6   941
    X46       CONSTR7   71
    X46       CONSTR8   892
    X46       CONSTR9   606
    X46       CONSTR10  253
    X47       OBJ       744
    X47       CONSTR1   367
    X47       CONSTR2   364
    X47       CONSTR3   200
    X47       CONSTR4   23
    X47       CONSTR5   276
    X47       CONSTR6   586
    X47       CONSTR7   134
    X47       CONSTR8   343
    X47       CONSTR9   121
    X47       CONSTR10  573
    X48       OBJ       706
    X48       CONSTR1   1000
    X48       CONSTR2   660
    X48       CONSTR3   823
    X48       CONSTR4   412
    X48       CONSTR5   461
    X48       CONSTR6   352
    X48       CONSTR7   219
    X48       CONSTR8   152
    X48       CONSTR9   448
    X48       CONSTR10  8
    X49       OBJ       610
    X49       CONSTR1   447
    X49       CONSTR2   23
    X49       CONSTR3   490
    X49       CONSTR4   141
    X49       CONSTR5   249
    X49       CONSTR6   399
    X49       CONSTR7   824
    X49       CONSTR8   553
    X49       CONSTR9   327
    X49       CONSTR10  863
    X50       OBJ       747
    X50       CONSTR1   336
    X50       CONSTR2   885
    X50       CONSTR3   669
    X50       CONSTR4   740
    X50       CONSTR5   464
    X50       CONSTR6   92
    X50       CONSTR7   269
    X50       CONSTR8   614
    X50       CONSTR9   717
    X50       CONSTR10  482
    X51       OBJ       949
    X51       CONSTR1   785
    X51       CONSTR2   322
    X51       CONSTR3   586
    X51       CONSTR4   322
    X51       CONSTR5   966
    X51       CONSTR6   918
    X51       CONSTR7   727
    X51       CONSTR8   629
    X51       CONSTR9   590
    X51       CONSTR10  6
    X52       OBJ       762
    X52       CONSTR1   745
    X52       CONSTR2   60
    X52       CONSTR3   869
    X52       CONSTR4   186
    X52       CONSTR5   986
    X52       CONSTR6   446
    X52       CONSTR7   584
    X52       CONSTR8   414
    X52       CONSTR9   852
    X52       CONSTR10  316
    X53       OBJ       752
    X53       CONSTR1   227
    X53       CONSTR2   261
    X53       CONSTR3   774
    X53       CONSTR4   598
    X53       CONSTR5   5
    X53       CONSTR6   471
    X53       CONSTR7   682
    X53       CONSTR8   112
    X53       CONSTR9   60
    X53       CONSTR10  941
    X54       OBJ       871
    X54       CONSTR1   820
    X54       CONSTR2   451
    X54       CONSTR3   714
    X54       CONSTR4   968
    X54       CONSTR5   523
    X54       CONSTR6   360
    X54       CONSTR7   263
    X54       CONSTR8   957
    X54       CONSTR9   840
    X54       CONSTR10  523
    X55       OBJ       872
    X55       CONSTR1   823
    X55       CONSTR2   212
    X55       CONSTR3   683
    X55       CONSTR4   598
    X55       CONSTR5   149
    X55       CONSTR6   634
    X55       CONSTR7   759
    X55       CONSTR8   551
    X55       CONSTR9   46
    X55       CONSTR10  56
    X56       OBJ       840
    X56       CONSTR1   370
    X56       CONSTR2   557
    X56       CONSTR3   342
    X56       CONSTR4   481
    X56       CONSTR5   134
    X56       CONSTR6   156
    X56       CONSTR7   719
    X56       CONSTR8   401
    X56       CONSTR9   172
    X56       CONSTR10  106
    X57       OBJ       837
    X57       CONSTR1   711
    X57       CONSTR2   610
    X57       CONSTR3   609
    X57       CONSTR4   507
    X57       CONSTR5   82
    X57       CONSTR6   178
    X57       CONSTR7   403
    X57       CONSTR8   789
    X57       CONSTR9   55
    X57       CONSTR10  359
    X58       OBJ       817
    X58       CONSTR1   598
    X58       CONSTR2   414
    X58       CONSTR3   699
    X58       CONSTR4   5
    X58       CONSTR5   725
    X58       CONSTR6   490
    X58       CONSTR7   349
    X58       CONSTR8   452
    X58       CONSTR9   408
    X58       CONSTR10  86
    X59       OBJ       443
    X59       CONSTR1   325
    X59       CONSTR2   550
    X59       CONSTR3   325
    X59       CONSTR4   37
    X59       CONSTR5   593
    X59       CONSTR6   79
    X59       CONSTR7   322
    X59       CONSTR8   874
    X59       CONSTR9   418
    X59       CONSTR10  510
    X60       OBJ       551
    X60       CONSTR1   61
    X60       CONSTR2   329
    X60       CONSTR3   269
    X60       CONSTR4   658
    X60       CONSTR5   27
    X60       CONSTR6   914
    X60       CONSTR7   48
    X60       CONSTR8   195
    X60       CONSTR9   590
    X60       CONSTR10  667
    X61       OBJ       765
    X61       CONSTR1   280
    X61       CONSTR2   482
    X61       CONSTR3   170
    X61       CONSTR4   249
    X61       CONSTR5   601
    X61       CONSTR6   64
    X61       CONSTR7   788
    X61       CONSTR8   697
    X61       CONSTR9   20
    X61       CONSTR10  214
    X62       OBJ       724
    X62       CONSTR1   310
    X62       CONSTR2   843
    X62       CONSTR3   730
    X62       CONSTR4   20
    X62       CONSTR5   245
    X62       CONSTR6   365
    X62       CONSTR7   839
    X62       CONSTR8   739
    X62       CONSTR9   410
    X62       CONSTR10  501
    X63       OBJ       575
    X63       CONSTR1   76
    X63       CONSTR2   632
    X63       CONSTR3   821
    X63       CONSTR4   315
    X63       CONSTR5   494
    X63       CONSTR6   110
    X63       CONSTR7   26
    X63       CONSTR8   36
    X63       CONSTR9   899
    X63       CONSTR10  988
    X64       OBJ       678
    X64       CONSTR1   906
    X64       CONSTR2   992
    X64       CONSTR3   451
    X64       CONSTR4   261
    X64       CONSTR5   216
    X64       CONSTR6   697
    X64       CONSTR7   892
    X64       CONSTR8   114
    X64       CONSTR9   372
    X64       CONSTR10  757
    X65       OBJ       884
    X65       CONSTR1   416
    X65       CONSTR2   642
    X65       CONSTR3   172
    X65       CONSTR4   735
    X65       CONSTR5   30
    X65       CONSTR6   247
    X65       CONSTR7   883
    X65       CONSTR8   732
    X65       CONSTR9   483
    X65       CONSTR10  854
    X66       OBJ       1017
    X66       CONSTR1   286
    X66       CONSTR2   906
    X66       CONSTR3   141
    X66       CONSTR4   801
    X66       CONSTR5   949
    X66       CONSTR6   145
    X66       CONSTR7   83
    X66       CONSTR8   955
    X66       CONSTR9   688
    X66       CONSTR10  343
    X67       OBJ       620
    X67       CONSTR1   888
    X67       CONSTR2   6
    X67       CONSTR3   624
    X67       CONSTR4   330
    X67       CONSTR5   771
    X67       CONSTR6   535
    X67       CONSTR7   69
    X67       CONSTR8   867
    X67       CONSTR9   596
    X67       CONSTR10  550
    X68       OBJ       405
    X68       CONSTR1   31
    X68       CONSTR2   768
    X68       CONSTR3   739
    X68       CONSTR4   128
    X68       CONSTR5   923
    X68       CONSTR6   53
    X68       CONSTR7   133
    X68       CONSTR8   571
    X68       CONSTR9   63
    X68       CONSTR10  492
    X69       OBJ       715
    X69       CONSTR1   794
    X69       CONSTR2   354
    X69       CONSTR3   51
    X69       CONSTR4   78
    X69       CONSTR5   278
    X69       CONSTR6   700
    X69       CONSTR7   127
    X69       CONSTR8   421
    X69       CONSTR9   963
    X69       CONSTR10  981
    X70       OBJ       546
    X70       CONSTR1   61
    X70       CONSTR2   80
    X70       CONSTR3   679
    X70       CONSTR4   445
    X70       CONSTR5   226
    X70       CONSTR6   874
    X70       CONSTR7   794
    X70       CONSTR8   622
    X70       CONSTR9   485
    X70       CONSTR10  112
    X71       OBJ       799
    X71       CONSTR1   590
    X71       CONSTR2   224
    X71       CONSTR3   717
    X71       CONSTR4   273
    X71       CONSTR5   231
    X71       CONSTR6   860
    X71       CONSTR7   221
    X71       CONSTR8   89
    X71       CONSTR9   789
    X71       CONSTR10  2
    X72       OBJ       657
    X72       CONSTR1   297
    X72       CONSTR2   780
    X72       CONSTR3   515
    X72       CONSTR4   582
    X72       CONSTR5   134
    X72       CONSTR6   312
    X72       CONSTR7   280
    X72       CONSTR8   679
    X72       CONSTR9   291
    X72       CONSTR10  938
    X73       OBJ       674
    X73       CONSTR1   836
    X73       CONSTR2   710
    X73       CONSTR3   288
    X73       CONSTR4   219
    X73       CONSTR5   309
    X73       CONSTR6   220
    X73       CONSTR7   76
    X73       CONSTR8   617
    X73       CONSTR9   331
    X73       CONSTR10  659
    X74       OBJ       757
    X74       CONSTR1   765
    X74       CONSTR2   253
    X74       CONSTR3   829
    X74       CONSTR4   794
    X74       CONSTR5   782
    X74       CONSTR6   13
    X74       CONSTR7   105
    X74       CONSTR8   189
    X74       CONSTR9   706
    X74       CONSTR10  916
    X75       OBJ       294
    X75       CONSTR1   236
    X75       CONSTR2   46
    X75       CONSTR3   1
    X75       CONSTR4   140
    X75       CONSTR5   100
    X75       CONSTR6   266
    X75       CONSTR7   803
    X75       CONSTR8   476
    X75       CONSTR9   99
    X75       CONSTR10  77
    X76       OBJ       823
    X76       CONSTR1   145
    X76       CONSTR2   136
    X76       CONSTR3   971
    X76       CONSTR4   648
    X76       CONSTR5   522
    X76       CONSTR6   412
    X76       CONSTR7   628
    X76       CONSTR8   559
    X76       CONSTR9   295
    X76       CONSTR10  366
    X77       OBJ       568
    X77       CONSTR1   791
    X77       CONSTR2   43
    X77       CONSTR3   92
    X77       CONSTR4   406
    X77       CONSTR5   788
    X77       CONSTR6   802
    X77       CONSTR7   79
    X77       CONSTR8   196
    X77       CONSTR9   807
    X77       CONSTR10  861
    X78       OBJ       474
    X78       CONSTR1   612
    X78       CONSTR2   13
    X78       CONSTR3   41
    X78       CONSTR4   808
    X78       CONSTR5   717
    X78       CONSTR6   639
    X78       CONSTR7   815
    X78       CONSTR8   14
    X78       CONSTR9   363
    X78       CONSTR10  390
    X79       OBJ       696
    X79       CONSTR1   438
    X79       CONSTR2   218
    X79       CONSTR3   621
    X79       CONSTR4   890
    X79       CONSTR5   568
    X79       CONSTR6   259
    X79       CONSTR7   732
    X79       CONSTR8   95
    X79       CONSTR9   633
    X79       CONSTR10  535
    X80       OBJ       748
    X80       CONSTR1   575
    X80       CONSTR2   129
    X80       CONSTR3   234
    X80       CONSTR4   380
    X80       CONSTR5   934
    X80       CONSTR6   910
    X80       CONSTR7   471
    X80       CONSTR8   816
    X80       CONSTR9   385
    X80       CONSTR10  229
    X81       OBJ       736
    X81       CONSTR1   568
    X81       CONSTR2   378
    X81       CONSTR3   62
    X81       CONSTR4   527
    X81       CONSTR5   789
    X81       CONSTR6   607
    X81       CONSTR7   697
    X81       CONSTR8   42
    X81       CONSTR9   220
    X81       CONSTR10  745
    X82       OBJ       675
    X82       CONSTR1   844
    X82       CONSTR2   247
    X82       CONSTR3   193
    X82       CONSTR4   330
    X82       CONSTR5   593
    X82       CONSTR6   741
    X82       CONSTR7   948
    X82       CONSTR8   891
    X82       CONSTR9   376
    X82       CONSTR10  26
    X83       OBJ       776
    X83       CONSTR1   531
    X83       CONSTR2   458
    X83       CONSTR3   215
    X83       CONSTR4   425
    X83       CONSTR5   551
    X83       CONSTR6   939
    X83       CONSTR7   847
    X83       CONSTR8   811
    X83       CONSTR9   556
    X83       CONSTR10  598
    X84       OBJ       933
    X84       CONSTR1   840
    X84       CONSTR2   356
    X84       CONSTR3   245
    X84       CONSTR4   479
    X84       CONSTR5   270
    X84       CONSTR6   795
    X84       CONSTR7   668
    X84       CONSTR8   287
    X84       CONSTR9   475
    X84       CONSTR10  211
    X85       OBJ       680
    X85       CONSTR1   708
    X85       CONSTR2   118
    X85       CONSTR3   821
    X85       CONSTR4   998
    X85       CONSTR5   375
    X85       CONSTR6   794
    X85       CONSTR7   676
    X85       CONSTR8   789
    X85       CONSTR9   660
    X85       CONSTR10  537
    X86       OBJ       683
    X86       CONSTR1   939
    X86       CONSTR2   271
    X86       CONSTR3   60
    X86       CONSTR4   272
    X86       CONSTR5   662
    X86       CONSTR6   51
    X86       CONSTR7   724
    X86       CONSTR8   347
    X86       CONSTR9   749
    X86       CONSTR10  84
    X87       OBJ       545
    X87       CONSTR1   772
    X87       CONSTR2   404
    X87       CONSTR3   700
    X87       CONSTR4   193
    X87       CONSTR5   211
    X87       CONSTR6   785
    X87       CONSTR7   387
    X87       CONSTR8   403
    X87       CONSTR9   186
    X87       CONSTR10  58
    X88       OBJ       656
    X88       CONSTR1   375
    X88       CONSTR2   685
    X88       CONSTR3   198
    X88       CONSTR4   427
    X88       CONSTR5   892
    X88       CONSTR6   764
    X88       CONSTR7   911
    X88       CONSTR8   43
    X88       CONSTR9   272
    X88       CONSTR10  344
    X89       OBJ       868
    X89       CONSTR1   254
    X89       CONSTR2   509
    X89       CONSTR3   532
    X89       CONSTR4   247
    X89       CONSTR5   983
    X89       CONSTR6   637
    X89       CONSTR7   103
    X89       CONSTR8   932
    X89       CONSTR9   8
    X89       CONSTR10  456
    X90       OBJ       515
    X90       CONSTR1   83
    X90       CONSTR2   899
    X90       CONSTR3   914
    X90       CONSTR4   754
    X90       CONSTR5   37
    X90       CONSTR6   334
    X90       CONSTR7   62
    X90       CONSTR8   815
    X90       CONSTR9   745
    X90       CONSTR10  239
    X91       OBJ       869
    X91       CONSTR1   200
    X91       CONSTR2   217
    X91       CONSTR3   344
    X91       CONSTR4   227
    X91       CONSTR5   295
    X91       CONSTR6   865
    X91       CONSTR7   187
    X91       CONSTR8   706
    X91       CONSTR9   720
    X91       CONSTR10  405
    X92       OBJ       719
    X92       CONSTR1   477
    X92       CONSTR2   676
    X92       CONSTR3   310
    X92       CONSTR4   249
    X92       CONSTR5   295
    X92       CONSTR6   457
    X92       CONSTR7   820
    X92       CONSTR8   181
    X92       CONSTR9   245
    X92       CONSTR10  683
    X93       OBJ       814
    X93       CONSTR1   120
    X93       CONSTR2   496
    X93       CONSTR3   312
    X93       CONSTR4   135
    X93       CONSTR5   148
    X93       CONSTR6   235
    X93       CONSTR7   193
    X93       CONSTR8   376
    X93       CONSTR9   145
    X93       CONSTR10  989
    X94       OBJ       675
    X94       CONSTR1   391
    X94       CONSTR2   160
    X94       CONSTR3   817
    X94       CONSTR4   553
    X94       CONSTR5   513
    X94       CONSTR6   985
    X94       CONSTR7   584
    X94       CONSTR8   229
    X94       CONSTR9   535
    X94       CONSTR10  853
    X95       OBJ       319
    X95       CONSTR1   64
    X95       CONSTR2   508
    X95       CONSTR3   91
    X95       CONSTR4   335
    X95       CONSTR5   14
    X95       CONSTR6   436
    X95       CONSTR7   326
    X95       CONSTR8   36
    X95       CONSTR9   29
    X95       CONSTR10  921
    X96       OBJ       1012
    X96       CONSTR1   784
    X96       CONSTR2   822
    X96       CONSTR3   179
    X96       CONSTR4   822
    X96       CONSTR5   486
    X96       CONSTR6   975
    X96       CONSTR7   555
    X96       CONSTR8   113
    X96       CONSTR9   519
    X96       CONSTR10  544
    X97       OBJ       651
    X97       CONSTR1   138
    X97       CONSTR2   346
    X97       CONSTR3   355
    X97       CONSTR4   818
    X97       CONSTR5   97
    X97       CONSTR6   458
    X97       CONSTR7   95
    X97       CONSTR8   870
    X97       CONSTR9   805
    X97       CONSTR10  363
    X98       OBJ       804
    X98       CONSTR1   50
    X98       CONSTR2   362
    X98       CONSTR3   414
    X98       CONSTR4   837
    X98       CONSTR5   979
    X98       CONSTR6   504
    X98       CONSTR7   254
    X98       CONSTR8   748
    X98       CONSTR9   654
    X98       CONSTR10  386
    X99       OBJ       870
    X99       CONSTR1   838
    X99       CONSTR2   11
    X99       CONSTR3   51
    X99       CONSTR4   864
    X99       CONSTR5   22
    X99       CONSTR6   782
    X99       CONSTR7   488
    X99       CONSTR8   951
    X99       CONSTR9   298
    X99       CONSTR10  943
    X100      OBJ       682
    X100      CONSTR1   380
    X100      CONSTR2   353
    X100      CONSTR3   488
    X100      CONSTR4   149
    X100      CONSTR5   347
    X100      CONSTR6   833
    X100      CONSTR7   668
    X100      CONSTR8   977
    X100      CONSTR9   584
    X100      CONSTR10  937
    INT0001   'MARKER'  'INTEND'
RHS
    RHS10001  CONSTR1   38264
    RHS10001  CONSTR2   34652
    RHS10001  CONSTR3   35766
    RHS10001  CONSTR4   33726
    RHS10001  CONSTR5   34350
    RHS10001  CONSTR6   35688
    RHS10001  CONSTR7   36911
    RHS10001  CONSTR8   36851
    RHS10001  CONSTR9   35828
    RHS10001  CONSTR10  39344
BOUNDS
 BV BND       X1        .00
 BV BND       X2        .00
 BV BND       X3        .00
 BV BND       X4        .00
 BV BND       X5        .00
 BV BND       X6        .00
 BV BND       X7        .00
 BV BND       X8        .00
 BV BND       X9        .00
 BV BND       X10       .00
 BV BND       X11       .00
 BV BND       X12       .00
 BV BND       X13       .00
 BV BND       X14       .00
 BV BND       X15       .00
 BV BND       X16       .00
 BV BND       X17       .00
 BV BND       X18       .00
 BV BND       X19       .00
 BV BND       X20       .00
 BV BND       X21       .00
 BV BND       X22       .00
 BV BND       X23       .00
 BV BND       X24       .00
 BV BND       X25       .00
 BV BND       X26       .00
 BV BND       X27       .00
 BV BND       X28       .00
 BV BND       X29       .00
 BV BND       X30       .00
 BV BND       X31       .00
 BV BND       X32       .00
 BV BND       X33       .00
 BV BND       X34       .00
 BV BND       X35       .00
 BV BND       X36       .00
 BV BND       X37       .00
 BV BND       X38       .00
 BV BND       X39       .00
 BV BND       X40       .00
 BV BND       X41       .00
 BV BND       X42       .00
 BV BND       X43       .00
 BV BND       X44       .00
 BV BND       X45       .00
 BV BND       X46       .00
 BV BND       X47       .00
 BV BND       X48       .00
 BV BND       X49       .00
 BV BND       X50       .00
 BV BND       X51       .00
 BV BND       X52       .00
 BV BND       X53       .00
 BV BND       X54       .00
 BV BND       X55       .00
 BV BND       X56       .00
 BV BND       X57       .00
 BV BND       X58       .00
 BV BND       X59       .00
 BV BND       X60       .00
 BV BND       X61       .00
 BV BND       X62       .00
 BV BND       X63       .00
 BV BND       X64       .00
 BV BND       X65       .00
 BV BND       X66       .00
 BV BND       X67       .00
 BV BND       X68       .00
 BV BND       X69       .00
 BV BND       X70       .00
 BV BND       X71       .00
 BV BND       X72       .00
 BV BND       X73       .00
 BV BND       X74       .00
 BV BND       X75       .00
 BV BND       X76       .00
 BV BND       X77       .00
 BV BND       X78       .00
 BV BND       X79       .00
 BV BND       X80       .00
 BV BND       X81       .00
 BV BND       X82       .00
 BV BND       X83       .00
 BV BND       X84       .00
 BV BND       X85       .00
 BV BND       X86       .00
 BV BND       X87       .00
 BV BND       X88       .00
 BV BND       X89       .00
 BV BND       X90       .00
 BV BND       X91       .00
 BV BND       X92       .00
 BV BND       X93       .00
 BV BND       X94       .00
 BV BND       X95       .00
 BV BND       X96       .00
 BV BND       X97       .00
 BV BND       X98       .00
 BV BND       X99       .00
 BV BND       X100      .00
ENDATA
